% File represents an instance of a Composite Structure problem to be solved by a CP framework
% Created on 2025-03-26 10:41:48.043
T = 50;
n = 36;
m = 60;
edges = [(1, 2),
(7, 8),
(13, 14),
(19, 20),
(25, 26),
(31, 32),
(2, 3),
(8, 9),
(14, 15),
(20, 21),
(26, 27),
(32, 33),
(4, 3),
(10, 9),
(16, 15),
(22, 21),
(28, 27),
(34, 33),
(5, 4),
(10, 11),
(17, 16),
(23, 22),
(29, 28),
(34, 35),
(5, 6),
(12, 11),
(18, 17),
(24, 23),
(30, 29),
(36, 35),
(1, 7),
(13, 7),
(19, 13),
(25, 19),
(31, 25),
(8, 2),
(14, 8),
(20, 14),
(26, 20),
(32, 26),
(9, 3),
(9, 15),
(21, 15),
(27, 21),
(33, 27),
(10, 4),
(10, 16),
(22, 16),
(28, 22),
(34, 28),
(5, 11),
(17, 11),
(23, 17),
(29, 23),
(35, 29),
(12, 6),
(18, 12),
(24, 18),
(30, 24),
(36, 30)];
counts = [|6, 16, 6, 8,
|6, 12, 6, 6,
|6, 10, 6, 6,
|6, 12, 6, 6,
|6, 12, 6, 10,
|6, 12, 6, 8,
|6, 14, 6, 8,
|6, 14, 6, 6,
|6, 12, 6, 6,
|6, 12, 6, 8,
|6, 12, 6, 6,
|6, 14, 6, 8,
|6, 14, 6, 10,
|6, 14, 6, 8,
|6, 10, 6, 6,
|6, 12, 6, 6,
|6, 16, 6, 6,
|6, 16, 6, 10,
|6, 16, 6, 12,
|6, 14, 6, 10,
|6, 12, 6, 6,
|6, 12, 6, 8,
|6, 16, 6, 8,
|6, 18, 6, 10,
|8, 16, 8, 12,
|8, 14, 8, 10,
|6, 14, 6, 8,
|6, 16, 6, 10,
|6, 16, 6, 12,
|6, 18, 6, 12,
|8, 16, 8, 18,
|8, 14, 8, 14,
|6, 14, 6, 14,
|6, 18, 6, 14,
|6, 18, 6, 12,
|6, 18, 6, 16|];
